Mg2 Mn1 O4
1.0
   2.5636735998273470    0.0000000000000000    1.4761168122864052
  -0.6530444995940626    4.8631377610744027    4.1402288444596884
   0.0000000000000000    0.0000000000000000    5.9264972499999997
Mg Mn O
2 1 4
direct
   0.4754484500000000    0.5864128100000000    0.3856678200000000 Mg
   0.0003005100000000    0.1224691500000000    0.0999500800000000 Mg
   0.9941839600000000    0.0555046500000000    0.6401814000000000 Mn
   0.2767624600000000    0.8823130900000000    0.4462943200000000 O
   0.7648544000000000    0.3217514000000000    0.7325865499999999 O
   0.6752181000000000    0.2758786000000000    0.3465688000000000 O
   0.2575748900000000    0.8487371800000000    0.9810745800000000 O
