Mg2 Mn1 O4
1.0
   2.5633562373841299    0.0000000000000000    1.4764605840804041
  -0.6532940304057062    4.8629037515310856    4.1414511021132903
   0.0000000000000000    0.0000000000000000    5.9266023499999996
Mg Mn O
2 1 4
direct
   0.4758427400000000    0.5861792900000000    0.3857796300000000 Mg
   0.9991758800000000    0.1220715500000000    0.1000845500000000 Mg
   0.9939867000000000    0.0554279100000000    0.6399525100000000 Mn
   0.2760412200000000    0.8819658000000000    0.4463897700000000 O
   0.7649756200000000    0.3215669700000000    0.7323383100000000 O
   0.6756120600000000    0.2758310200000000    0.3462239500000000 O
   0.2585864300000000    0.8487470400000000    0.9806900100000000 O
