Mg2 Mn1 O4
1.0
   2.5627912112823763    0.0000000000000000    1.4755580113575240
  -0.6529615373681145    4.8621142233754524    4.1406216737277566
   0.0000000000000000    0.0000000000000000    5.9232395000000002
Mg Mn O
2 1 4
direct
   0.4757782400000000    0.5851714099999999    0.3850293400000000 Mg
   0.9998306500000000    0.1208795400000000    0.0994724800000000 Mg
   0.9941189200000000    0.0546244600000000    0.6391430800000000 Mn
   0.2758341900000000    0.8809448700000000    0.4459436200000000 O
   0.7647344200000000    0.3205738600000000    0.7317803300000000 O
   0.6750669100000000    0.2749292900000000    0.3453686100000000 O
   0.2582085800000000    0.8479276300000000    0.9801423000000000 O
