Mg1 Mn1 O3
1.0
   3.6057060296936267    0.0000000000000000    1.4486829296102026
   0.3229888228077401    2.7819666866739512    4.4849511289053838
   0.0000000000000000    0.0000000000000000    5.2869019200000000
Mg Mn O
1 1 3
direct
   0.3956827700000000    0.4535893800000000    0.9254509100000000 Mg
   0.0970958500000000    0.7575562900000000    0.2291562200000000 Mn
   0.5599289800000000    0.7928145100000000    0.2645891000000000 O
   0.9567082900000000    0.3937950600000000    0.8662614900000000 O
   0.2404103200000000    0.1156372700000000    0.5884236200000000 O
