Mg2 Mn1 O4
1.0
   2.5627618888255279    0.0000000000000000    1.4773656222660441
  -0.6554677834717241    4.8618789418663724    4.1417541855995514
   0.0000000000000000    0.0000000000000000    5.9282729600000001
Mg Mn O
2 1 4
direct
   0.4754663700000000    0.5852895000000000    0.3849893800000000 Mg
   0.9990416900000000    0.1213353700000000    0.0994519800000000 Mg
   0.9940210700000000    0.0545358600000000    0.6394715500000000 Mn
   0.2761136000000000    0.8813169600000000    0.4456743700000000 O
   0.7644427300000000    0.3207563600000000    0.7317599200000000 O
   0.6764841900000000    0.2750803000000000    0.3455850500000000 O
   0.2580742600000000    0.8474969600000000    0.9804661099999999 O
