Mg2 Mn1 O4
1.0
   2.5635878308637232    0.0000000000000000    1.4762361254545182
  -0.6535259249618998    4.8631027568353780    4.1414485588540906
   0.0000000000000000    0.0000000000000000    5.9265329700000002
Mg Mn O
2 1 4
direct
   0.4755621100000000    0.5865623900000000    0.3857828300000000 Mg
   0.0000805800000000    0.1225141900000000    0.1001476600000000 Mg
   0.9942006500000000    0.0557367200000000    0.6402173000000000 Mn
   0.2765299600000000    0.8823753600000001    0.4465874400000000 O
   0.7648764000000000    0.3219011000000000    0.7326518100000000 O
   0.6754474200000000    0.2761228500000000    0.3465043800000000 O
   0.2577543400000000    0.8489702299999999    0.9811863000000000 O
